Cost: 1117
0-22-40-20-38-18-17-36-14-16-45-19-39-21-0
0-26-9-27-28-3-24-4-29-30-31-5-6-8-32-10-11-47-25-0
Cost: 1117
0-22-40-20-18-17-36-14-16-45-19-39-21-0
0-26-1-9-33-27-28-3-24-29-30-5-31-8-32-6-10-11-47-25-0
Cost: 1117
0-22-40-20-38-18-17-36-14-16-45-19-39-21-0
0-26-9-27-28-3-24-4-29-30-31-5-6-8-32-10-11-47-25-0
Cost: 1117
0-22-40-20-38-18-17-36-14-16-45-19-39-21-0
0-26-9-27-28-3-24-4-29-30-31-5-6-8-32-10-11-47-25-0
Cost: 1117
0-22-40-20-18-17-36-14-16-45-19-39-21-0
0-26-9-33-27-28-3-24-4-29-30-31-5-6-8-32-10-11-47-25-0
Cost: 1117
0-26-9-27-28-3-24-4-29-30-5-31-8-32-6-10-11-47-25-0
0-22-40-20-38-18-17-36-14-16-45-19-39-21-0
Cost: 1117
0-26-9-27-28-3-24-4-29-30-31-5-8-32-6-10-11-47-25-0
0-22-40-20-38-18-17-36-14-16-45-19-39-21-0
Cost: 1117
0-22-40-20-38-18-17-36-14-16-19-39-21-0
0-26-9-33-27-28-3-24-4-29-30-31-5-6-8-32-10-11-47-25-0
Cost: 1117
0-22-40-20-38-18-17-36-14-16-19-39-21-0
0-26-9-33-27-28-3-24-4-29-30-31-5-6-8-32-10-11-47-25-0
Cost: 1117
0-22-40-20-38-18-17-36-14-16-19-39-21-0
0-26-9-33-27-28-3-24-4-29-30-31-5-6-8-32-10-11-47-25-0
Cost: 1117
0-22-40-20-38-18-17-36-14-16-19-39-21-0
0-26-1-9-33-27-28-3-24-4-29-30-5-31-8-32-10-11-47-25-0
Cost: 1117
0-22-20-38-18-17-36-14-16-45-19-39-21-40-0
0-26-1-9-27-28-3-24-4-29-30-31-5-8-32-10-11-47-25-0
Cost: 1117
0-22-20-38-18-17-36-14-16-45-19-39-21-40-0
0-26-1-9-27-28-3-24-4-29-30-31-5-8-32-10-11-47-25-0
Cost: 1117
0-22-20-38-18-17-36-14-16-45-19-39-21-40-0
0-26-1-9-27-28-3-24-4-29-30-31-5-8-32-10-11-47-25-0
Cost: 1117
0-26-1-9-33-27-28-3-24-4-29-30-31-8-32-6-10-11-47-25-0
0-22-20-38-18-17-36-14-16-19-39-21-40-0
Cost: 1117
0-22-20-38-18-17-36-14-16-45-19-39-21-40-0
0-26-1-9-27-28-3-24-4-29-30-31-5-8-32-10-11-47-25-0
Cost: 1117
0-22-20-38-18-17-36-14-16-45-19-39-21-40-0
0-26-1-9-27-28-3-24-4-29-30-31-5-8-32-10-11-47-25-0
Cost: 1117
0-22-20-38-18-17-36-14-16-45-19-39-21-40-0
0-26-1-9-27-28-24-4-29-30-5-31-6-8-32-10-11-47-25-0
Cost: 1117
0-22-20-38-18-17-36-14-16-45-19-39-21-40-0
0-26-1-9-27-28-3-24-4-29-30-31-5-8-32-10-11-47-25-0
Cost: 1117
0-22-20-38-18-17-36-14-16-45-19-39-21-40-0
0-26-1-9-27-28-3-24-4-29-30-31-5-8-32-10-11-47-25-0
Cost: 1117
0-22-40-20-38-18-17-36-14-16-19-39-21-0
0-26-1-9-33-27-28-3-24-4-29-30-31-8-32-6-10-11-47-25-0
Cost: 1117
0-22-40-20-38-18-17-36-14-16-45-19-39-21-0
0-26-9-27-28-3-24-4-29-30-31-5-6-8-32-10-11-47-25-0
Cost: 1117
0-22-40-20-38-18-17-36-14-16-45-19-39-21-0
0-26-9-27-28-3-24-4-29-30-31-5-6-8-32-10-11-47-25-0
Cost: 1117
0-22-20-38-18-17-36-14-16-45-19-39-21-0
0-26-1-9-33-27-28-3-24-4-29-30-31-8-32-6-10-11-47-25-0
Cost: 1117
0-22-20-38-18-17-36-14-16-45-19-39-21-0
0-26-1-9-33-27-28-3-24-4-29-30-31-8-32-6-10-11-47-25-0
Cost: 1117
0-22-20-18-17-36-14-16-45-19-39-21-40-0
0-26-1-9-33-27-28-3-24-29-30-31-5-6-8-32-10-11-47-25-0
Cost: 1117
0-22-20-38-18-17-36-14-16-45-19-39-21-0
0-26-1-9-33-27-28-3-24-4-29-30-31-8-32-6-10-11-47-25-0
Cost: 1117
0-22-40-20-38-18-17-36-14-16-19-39-21-0
0-26-1-9-33-27-28-3-24-4-29-30-31-8-32-6-10-11-47-25-0
Cost: 1117
0-22-40-20-38-18-17-36-14-16-45-19-39-21-0
0-26-9-27-28-3-24-4-29-30-31-5-6-8-32-10-11-47-25-0
Cost: 1117
0-22-40-20-38-18-17-36-14-16-45-19-39-21-0
0-26-9-27-28-3-24-4-29-30-31-5-6-8-32-10-11-47-25-0
Cost: 1117
0-22-40-20-38-18-17-36-14-16-45-19-39-21-0
0-26-1-9-33-27-28-24-4-29-30-31-5-6-8-32-10-11-25-0
Cost: 1117
0-22-40-20-38-18-17-36-14-16-45-19-21-0
0-26-1-9-33-27-28-3-24-29-30-31-5-6-8-32-10-11-47-25-0
Cost: 1117
0-26-9-33-27-28-3-24-4-29-30-31-5-6-8-32-10-11-47-25-0
0-22-40-20-38-18-17-14-16-45-19-39-21-0
Cost: 1117
0-26-1-9-33-27-28-3-24-29-30-31-5-8-32-6-10-11-25-0
0-22-40-20-38-18-17-36-14-16-45-19-39-21-0
Cost: 1117
0-22-40-20-38-18-17-36-14-16-45-19-39-21-0
0-26-1-9-27-28-3-24-29-30-5-31-6-8-32-10-11-47-25-0
